NAME 
ROWS
 N  OBJ
 L  R0      
 E  R1      
 E  R2      
 E  R3      
 E  R4      
 E  R5      
 E  R6      
 E  R7      
 E  R8      
 E  R9      
 E  R10     
 E  R11     
 E  R12     
 E  R13     
 E  R14     
 E  R15     
 E  R16     
 E  R17     
 E  R18     
 E  R19     
 E  R20     
 E  R21     
 E  R22     
 E  R23     
 E  R24     
 E  R25     
 E  R26     
 E  R27     
 E  R28     
 E  R29     
 E  R30     
COLUMNS
    MARKER    'MARKER'                 'INTORG'
    I0(3)     OBJ       -43
    I0(3)     R0        -153
    I0(3)     R1        15
    I0(3)     R30       1
    I1(3)     OBJ       26
    I1(3)     R0        100
    I1(3)     R2        2
    I1(3)     R30       1
    I2(3)     OBJ       143
    I2(3)     R0        63
    I2(3)     R3        -1
    I2(3)     R30       1
    I3(2)     OBJ       55
    I3(2)     R0        84
    I3(2)     R30       1
    I4(3)     OBJ       123
    I4(3)     R0        97
    I4(3)     R5        -1
    I4(3)     R30       1
    I5(3)     OBJ       -90
    I5(3)     R0        193
    I5(3)     R6        14
    I5(3)     R30       1
    I6(3)     OBJ       5
    I6(3)     R0        -119
    I6(3)     R7        11
    I6(3)     R30       1
    I7(3)     OBJ       99
    I7(3)     R0        -68
    I7(3)     R8        9
    I7(3)     R30       1
    I8(3)     OBJ       115
    I8(3)     R0        -4
    I8(3)     R9        14
    I8(3)     R30       1
    I9(3)     OBJ       -136
    I9(3)     R0        163
    I9(3)     R10       15
    I9(3)     R30       1
    I10(3)    OBJ       93
    I10(3)    R0        183
    I10(3)    R11       15
    I10(3)    R30       1
    I11(3)    OBJ       -114
    I11(3)    R0        91
    I11(3)    R12       6
    I11(3)    R30       1
    I12(3)    OBJ       26
    I12(3)    R0        -183
    I12(3)    R13       7
    I12(3)    R30       1
    I13(3)    OBJ       23
    I13(3)    R0        -125
    I13(3)    R14       15
    I13(3)    R30       1
    I14(3)    OBJ       -45
    I14(3)    R0        -159
    I14(3)    R15       1
    I14(3)    R30       1
    I15(3)    OBJ       -19
    I15(3)    R0        -25
    I15(3)    R16       2
    I15(3)    R30       1
    I16(3)    OBJ       -14
    I16(3)    R0        142
    I16(3)    R17       6
    I16(3)    R30       1
    I17(3)    OBJ       56
    I17(3)    R0        -122
    I17(3)    R18       4
    I17(3)    R30       1
    I18(3)    OBJ       51
    I18(3)    R0        14
    I18(3)    R19       5
    I18(3)    R30       1
    I19(3)    OBJ       -150
    I19(3)    R0        121
    I19(3)    R20       19
    I19(3)    R30       1
    I20(3)    OBJ       164
    I20(3)    R0        -142
    I20(3)    R21       13
    I20(3)    R30       1
    I21(3)    OBJ       145
    I21(3)    R0        175
    I21(3)    R22       11
    I21(3)    R30       1
    I22(3)    OBJ       143
    I22(3)    R0        -180
    I22(3)    R23       11
    I22(3)    R30       1
    I23(3)    OBJ       122
    I23(3)    R0        -4
    I23(3)    R24       17
    I23(3)    R30       1
    I24(3)    OBJ       -108
    I24(3)    R0        147
    I24(3)    R25       13
    I24(3)    R30       1
    I25(3)    OBJ       65
    I25(3)    R0        -13
    I25(3)    R26       14
    I25(3)    R30       1
    I26(3)    OBJ       -74
    I26(3)    R0        90
    I26(3)    R27       18
    I26(3)    R30       1
    I27(3)    OBJ       45
    I27(3)    R0        -113
    I27(3)    R28       5
    I27(3)    R30       1
    MARKER    'MARKER'                 'INTEND'
    C28(29)   OBJ       -7
    C28(29)   R0        -5
    C28(29)   R1        2
    C28(29)   R2        17
    C28(29)   R3        -1
    C28(29)   R4        12
    C28(29)   R5        2
    C28(29)   R6        9
    C28(29)   R7        2
    C28(29)   R9        15
    C28(29)   R10       2
    C28(29)   R11       18
    C28(29)   R12       11
    C28(29)   R13       -1
    C28(29)   R14       15
    C28(29)   R15       5
    C28(29)   R16       11
    C28(29)   R17       17
    C28(29)   R18       5
    C28(29)   R19       3
    C28(29)   R20       9
    C28(29)   R21       7
    C28(29)   R22       9
    C28(29)   R23       11
    C28(29)   R24       7
    C28(29)   R25       7
    C28(29)   R26       8
    C28(29)   R27       13
    C28(29)   R28       -1
    C28(29)   R29       16
    C29(30)   OBJ       2
    C29(30)   R0        4
    C29(30)   R1        2
    C29(30)   R2        19
    C29(30)   R3        -1
    C29(30)   R4        14
    C29(30)   R5        15
    C29(30)   R6        8
    C29(30)   R7        14
    C29(30)   R8        18
    C29(30)   R9        19
    C29(30)   R10       10
    C29(30)   R11       5
    C29(30)   R12       11
    C29(30)   R13       8
    C29(30)   R14       9
    C29(30)   R15       17
    C29(30)   R16       6
    C29(30)   R17       15
    C29(30)   R18       5
    C29(30)   R19       19
    C29(30)   R20       18
    C29(30)   R21       10
    C29(30)   R22       10
    C29(30)   R23       18
    C29(30)   R24       9
    C29(30)   R25       1
    C29(30)   R26       14
    C29(30)   R27       19
    C29(30)   R28       16
    C29(30)   R29       3
    C30(1)    R1        1
    C31(1)    R2        1
    C32(1)    R3        1
    C33(1)    R4        1
    C34(1)    R5        1
    C35(1)    R6        1
    C36(1)    R7        1
    C37(1)    R8        1
    C38(1)    R9        1
    C39(1)    R10       1
    C40(1)    R11       1
    C41(1)    R12       1
    C42(1)    R13       1
    C43(1)    R14       1
    C44(1)    R15       1
    C45(1)    R16       1
    C46(1)    R17       1
    C47(1)    R18       1
    C48(1)    R19       1
    C49(1)    R20       1
    C50(1)    R21       1
    C51(1)    R22       1
    C52(1)    R23       1
    C53(1)    R24       1
    C54(1)    R25       1
    C55(1)    R26       1
    C56(1)    R27       1
    C57(1)    R28       1
    C58(1)    R29       1
    C59(1)    R30       1
RHS
    RHS1      R0        446
    RHS1      R1        54
    RHS1      R2        76
    RHS1      R3        95
    RHS1      R4        90
    RHS1      R5        90
    RHS1      R6        54
    RHS1      R7        85
    RHS1      R8        59
    RHS1      R9        66
    RHS1      R10       83
    RHS1      R11       99
    RHS1      R12       80
    RHS1      R13       63
    RHS1      R14       83
    RHS1      R15       66
    RHS1      R16       83
    RHS1      R17       77
    RHS1      R18       58
    RHS1      R19       77
    RHS1      R20       77
    RHS1      R21       67
    RHS1      R22       53
    RHS1      R23       95
    RHS1      R24       79
    RHS1      R25       88
    RHS1      R26       91
    RHS1      R27       85
    RHS1      R28       87
    RHS1      R29       96
    RHS1      R30       9
BOUNDS
 UP BND1      I0(3)     1
 UP BND1      I1(3)     1
 UP BND1      I2(3)     1
 UP BND1      I3(2)     1
 UP BND1      I4(3)     1
 UP BND1      I5(3)     1
 UP BND1      I6(3)     1
 UP BND1      I7(3)     1
 UP BND1      I8(3)     1
 UP BND1      I9(3)     1
 UP BND1      I10(3)    1
 UP BND1      I11(3)    1
 UP BND1      I12(3)    1
 UP BND1      I13(3)    1
 UP BND1      I14(3)    1
 UP BND1      I15(3)    1
 UP BND1      I16(3)    1
 UP BND1      I17(3)    1
 UP BND1      I18(3)    1
 UP BND1      I19(3)    1
 UP BND1      I20(3)    1
 UP BND1      I21(3)    1
 UP BND1      I22(3)    1
 UP BND1      I23(3)    1
 UP BND1      I24(3)    1
 UP BND1      I25(3)    1
 UP BND1      I26(3)    1
 UP BND1      I27(3)    1
ENDATA
